dry_run: False
attempt: 1
with_proof: False
command: cadical -w results/jar_full_atlas/case_01100/model.txt results/jar_full_atlas/case_01100/sen24.cnf
return_code: 10
duration_sec: 0.011347
----- STDOUT -----
c --- [ banner ] -------------------------------------------------------------
c 
c CaDiCaL SAT Solver
c Copyright (c) 2016-2025
c A. Biere, M. Fleury, N. Froleyks, K. Fazekas, F. Pollitt, T. Faller
c JKU Linz, University of Freiburg, TU Wien
c 
c Version 3.0.0
c Apple clang version 17.0.0 (clang-1700.6.3.2) -Wall -Wextra -O3 -DNDEBUG -DNCLOSEFROM
c Tue Dec 23 21:53:37 UTC 2025 Darwin Sequoia-arm64.local 24.6.0 arm64
c 
c --- [ parsing input ] ------------------------------------------------------
c 
c reading DIMACS file from 'results/jar_full_atlas/case_01100/sen24.cnf'
c opening file to read 'results/jar_full_atlas/case_01100/sen24.cnf'
c found 'p cnf 6936 15554' header
c parsed 15554 clauses in 0.00 seconds process time
c 
c --- [ options ] ------------------------------------------------------------
c 
c all options are set to their default value
c 
c --- [ solving ] ------------------------------------------------------------
c 
c time measured in process time since initialization
c 
c  seconds  reduction conflicts       size tier2     variables
c         MB    restarts   redundant    glue  trail       remaining
c          level     rate       size/glu tier1 irredundant
c 
c *  0.00  0  0 0   0  0    0    0 0.0 0 0 2 6  0% 6914 3480 50%
c l  0.00  0  0 0   0  0    0    0 0.0 0 0 2 6  0% 6914 3480 50%
c 1  0.00  0  0 0   0  0    0    0 0.0 0 0 2 6  0% 6914 3480 50%
c 
c --- [ result ] -------------------------------------------------------------
c 
c writing result to 'results/jar_full_atlas/case_01100/model.txt'
c 
c --- [ run-time profiling ] -------------------------------------------------
c 
c process time taken by individual solving procedures
c (percentage relative to process time for solving)
c 
c         0.00 1385.53% parse
c         0.00   88.16% search
c         0.00   86.84% lucky
c         0.00    0.00% simplify
c   =================================
c         0.00    5.02% solve
c 
c last line shows process time for solving
c (percentage relative to total process time)
c 
c --- [ statistics ] ---------------------------------------------------------
c 
c fixed:                      1728        24.91 %  of all variables
c lucky:                         1       100.00 %  of tried
c minimized:                     0         0.00 %  learned literals
c shrunken:                      0         0.00 %  learned literals
c minishrunken:                  0         0.00 %  learned literals
c propagations:               1728        11.37 M  per second
c ticks:                      1728         1.00    propagation
c 
c seconds are measured in process time for solving
c 
c --- [ glue usage ] ---------------------------------------------------------
c 
c focused glue 2 used 0 clauses 0.000% accumulated 0.000% tier1
c focused glue 3 used 0 clauses 0.000% accumulated 0.000%
c focused glue 4 used 0 clauses 0.000% accumulated 0.000%
c focused glue 5 used 0 clauses 0.000% accumulated 0.000%
c focused glue 6 used 0 clauses 0.000% accumulated 0.000% tier2
c 
c stable glue 2 used 0 clauses 0.000% accumulated 0.000% tier1
c stable glue 3 used 0 clauses 0.000% accumulated 0.000%
c stable glue 4 used 0 clauses 0.000% accumulated 0.000%
c stable glue 5 used 0 clauses 0.000% accumulated 0.000%
c stable glue 6 used 0 clauses 0.000% accumulated 0.000% tier2
c 
c 
c --- [ resources ] ----------------------------------------------------------
c 
c total process time since initialization:         0.00    seconds
c total real time since initialization:            0.00    seconds
c maximum resident set size of process:         3904.00    MB
c 
c --- [ shutting down ] ------------------------------------------------------
c 
c exit 10
----- STDERR -----
